certificates/rado_a14_c18_N63.cnf
c Rad2 upper bound instance: x1 + 14*x2 - x3 = 18, interval [1,63]
p cnf 63 374
1 2 11 0
-1 -2 -11 0
1 3 25 0
-1 -3 -25 0
1 4 39 0
-1 -4 -39 0
1 5 53 0
-1 -5 -53 0
2 12 0
-2 -12 0
2 3 26 0
-2 -3 -26 0
2 4 40 0
-2 -4 -40 0
2 5 54 0
-2 -5 -54 0
2 3 13 0
-2 -3 -13 0
3 27 0
-3 -27 0
3 4 41 0
-3 -4 -41 0
3 5 55 0
-3 -5 -55 0
2 4 14 0
-2 -4 -14 0
3 4 28 0
-3 -4 -28 0
4 42 0
-4 -42 0
4 5 56 0
-4 -5 -56 0
1 5 0
-1 -5 0
2 5 15 0
-2 -5 -15 0
3 5 29 0
-3 -5 -29 0
4 5 43 0
-4 -5 -43 0
5 57 0
-5 -57 0
1 2 6 0
-1 -2 -6 0
2 6 16 0
-2 -6 -16 0
3 6 30 0
-3 -6 -30 0
4 6 44 0
-4 -6 -44 0
5 6 58 0
-5 -6 -58 0
1 3 7 0
-1 -3 -7 0
2 7 17 0
-2 -7 -17 0
3 7 31 0
-3 -7 -31 0
4 7 45 0
-4 -7 -45 0
5 7 59 0
-5 -7 -59 0
1 4 8 0
-1 -4 -8 0
2 8 18 0
-2 -8 -18 0
3 8 32 0
-3 -8 -32 0
4 8 46 0
-4 -8 -46 0
5 8 60 0
-5 -8 -60 0
1 5 9 0
-1 -5 -9 0
2 9 19 0
-2 -9 -19 0
3 9 33 0
-3 -9 -33 0
4 9 47 0
-4 -9 -47 0
5 9 61 0
-5 -9 -61 0
1 6 10 0
-1 -6 -10 0
2 10 20 0
-2 -10 -20 0
3 10 34 0
-3 -10 -34 0
4 10 48 0
-4 -10 -48 0
5 10 62 0
-5 -10 -62 0
1 7 11 0
-1 -7 -11 0
2 11 21 0
-2 -11 -21 0
3 11 35 0
-3 -11 -35 0
4 11 49 0
-4 -11 -49 0
5 11 63 0
-5 -11 -63 0
1 8 12 0
-1 -8 -12 0
2 12 22 0
-2 -12 -22 0
3 12 36 0
-3 -12 -36 0
4 12 50 0
-4 -12 -50 0
1 9 13 0
-1 -9 -13 0
2 13 23 0
-2 -13 -23 0
3 13 37 0
-3 -13 -37 0
4 13 51 0
-4 -13 -51 0
1 10 14 0
-1 -10 -14 0
2 14 24 0
-2 -14 -24 0
3 14 38 0
-3 -14 -38 0
4 14 52 0
-4 -14 -52 0
1 11 15 0
-1 -11 -15 0
2 15 25 0
-2 -15 -25 0
3 15 39 0
-3 -15 -39 0
4 15 53 0
-4 -15 -53 0
1 12 16 0
-1 -12 -16 0
2 16 26 0
-2 -16 -26 0
3 16 40 0
-3 -16 -40 0
4 16 54 0
-4 -16 -54 0
1 13 17 0
-1 -13 -17 0
2 17 27 0
-2 -17 -27 0
3 17 41 0
-3 -17 -41 0
4 17 55 0
-4 -17 -55 0
1 14 18 0
-1 -14 -18 0
2 18 28 0
-2 -18 -28 0
3 18 42 0
-3 -18 -42 0
4 18 56 0
-4 -18 -56 0
1 15 19 0
-1 -15 -19 0
2 19 29 0
-2 -19 -29 0
3 19 43 0
-3 -19 -43 0
4 19 57 0
-4 -19 -57 0
1 16 20 0
-1 -16 -20 0
2 20 30 0
-2 -20 -30 0
3 20 44 0
-3 -20 -44 0
4 20 58 0
-4 -20 -58 0
1 17 21 0
-1 -17 -21 0
2 21 31 0
-2 -21 -31 0
3 21 45 0
-3 -21 -45 0
4 21 59 0
-4 -21 -59 0
1 18 22 0
-1 -18 -22 0
2 22 32 0
-2 -22 -32 0
3 22 46 0
-3 -22 -46 0
4 22 60 0
-4 -22 -60 0
1 19 23 0
-1 -19 -23 0
2 23 33 0
-2 -23 -33 0
3 23 47 0
-3 -23 -47 0
4 23 61 0
-4 -23 -61 0
1 20 24 0
-1 -20 -24 0
2 24 34 0
-2 -24 -34 0
3 24 48 0
-3 -24 -48 0
4 24 62 0
-4 -24 -62 0
1 21 25 0
-1 -21 -25 0
2 25 35 0
-2 -25 -35 0
3 25 49 0
-3 -25 -49 0
4 25 63 0
-4 -25 -63 0
1 22 26 0
-1 -22 -26 0
2 26 36 0
-2 -26 -36 0
3 26 50 0
-3 -26 -50 0
1 23 27 0
-1 -23 -27 0
2 27 37 0
-2 -27 -37 0
3 27 51 0
-3 -27 -51 0
1 24 28 0
-1 -24 -28 0
2 28 38 0
-2 -28 -38 0
3 28 52 0
-3 -28 -52 0
1 25 29 0
-1 -25 -29 0
2 29 39 0
-2 -29 -39 0
3 29 53 0
-3 -29 -53 0
1 26 30 0
-1 -26 -30 0
2 30 40 0
-2 -30 -40 0
3 30 54 0
-3 -30 -54 0
1 27 31 0
-1 -27 -31 0
2 31 41 0
-2 -31 -41 0
3 31 55 0
-3 -31 -55 0
1 28 32 0
-1 -28 -32 0
2 32 42 0
-2 -32 -42 0
3 32 56 0
-3 -32 -56 0
1 29 33 0
-1 -29 -33 0
2 33 43 0
-2 -33 -43 0
3 33 57 0
-3 -33 -57 0
1 30 34 0
-1 -30 -34 0
2 34 44 0
-2 -34 -44 0
3 34 58 0
-3 -34 -58 0
1 31 35 0
-1 -31 -35 0
2 35 45 0
-2 -35 -45 0
3 35 59 0
-3 -35 -59 0
1 32 36 0
-1 -32 -36 0
2 36 46 0
-2 -36 -46 0
3 36 60 0
-3 -36 -60 0
1 33 37 0
-1 -33 -37 0
2 37 47 0
-2 -37 -47 0
3 37 61 0
-3 -37 -61 0
1 34 38 0
-1 -34 -38 0
2 38 48 0
-2 -38 -48 0
3 38 62 0
-3 -38 -62 0
1 35 39 0
-1 -35 -39 0
2 39 49 0
-2 -39 -49 0
3 39 63 0
-3 -39 -63 0
1 36 40 0
-1 -36 -40 0
2 40 50 0
-2 -40 -50 0
1 37 41 0
-1 -37 -41 0
2 41 51 0
-2 -41 -51 0
1 38 42 0
-1 -38 -42 0
2 42 52 0
-2 -42 -52 0
1 39 43 0
-1 -39 -43 0
2 43 53 0
-2 -43 -53 0
1 40 44 0
-1 -40 -44 0
2 44 54 0
-2 -44 -54 0
1 41 45 0
-1 -41 -45 0
2 45 55 0
-2 -45 -55 0
1 42 46 0
-1 -42 -46 0
2 46 56 0
-2 -46 -56 0
1 43 47 0
-1 -43 -47 0
2 47 57 0
-2 -47 -57 0
1 44 48 0
-1 -44 -48 0
2 48 58 0
-2 -48 -58 0
1 45 49 0
-1 -45 -49 0
2 49 59 0
-2 -49 -59 0
1 46 50 0
-1 -46 -50 0
2 50 60 0
-2 -50 -60 0
1 47 51 0
-1 -47 -51 0
2 51 61 0
-2 -51 -61 0
1 48 52 0
-1 -48 -52 0
2 52 62 0
-2 -52 -62 0
1 49 53 0
-1 -49 -53 0
2 53 63 0
-2 -53 -63 0
1 50 54 0
-1 -50 -54 0
1 51 55 0
-1 -51 -55 0
1 52 56 0
-1 -52 -56 0
1 53 57 0
-1 -53 -57 0
1 54 58 0
-1 -54 -58 0
1 55 59 0
-1 -55 -59 0
1 56 60 0
-1 -56 -60 0
1 57 61 0
-1 -57 -61 0
1 58 62 0
-1 -58 -62 0
1 59 63 0
-1 -59 -63 0
