certificates/rado_a14_c18_N63.drat
-59 -63 0
d -59 -1 -63 0
7 11 59 0
-5 11 -60 0
5 -61 0
-5 -63 0
-63 0
11 0
-5 0
1 0
57 0
-61 0
-15 0
-2 0
-7 0
-53 0
9 0
25 0
4 0
0
